# LAMMPS input script for dislocation simulation
# Rule-based approach - following material science conventions

# Initialization
units metal
atom_style atomic
dimension 3
boundary p p p

# System setup
lattice fcc 3.615
region box block 0 20 0 20 0 20
create_box 1 box
create_atoms 1 box

# Create dislocation
region upper block 0 20 10 20 0 20
region lower block 0 20 0 10 0 20
group upper region upper
group lower region lower
displace_atoms lower move 0 0.5 0 units box

# Force field
pair_style eam/alloy
pair_coeff * * Cu.eam.alloy

# Settings
neighbor 2.0 bin
neigh_modify every 1 delay 0 check yes

# Minimization
min_style cg
minimize 1.0e-4 1.0e-6 100 1000

# Equilibration
velocity all create 300.0 12345 rot yes dist gaussian
fix 1 all nvt temp 300.0 300.0 0.1
timestep 0.001
thermo 100
run 1000

# Production
unfix 1
fix 1 all npt temp 300.0 300.0 0.1 iso 0.0 0.0 1.0
dump 1 all custom 100 traj.lammpstrj id type x y z vx vy vz
run 10000

# Analysis
compute 1 all centro/atom
compute 2 all voronoi/atom
compute 3 all stress/atom
dump 2 all custom 1000 analysis.lammpstrj id type x y z c_1 c_2 c_3
run 10000
