```lmp
# LAMMPS Input Script for Lennard-Jones Melt Simulation with GPU Acceleration

# Initialize simulation in reduced units
units lj
atom_style atomic
boundary p p p

# Create simulation box on an fcc lattice
lattice fcc 0.8442
region box block 0 10 0 10 0 10
create_box 1 box
create_atoms 1 box

# Assign masses and initial velocities
mass 1 1.0
velocity all create 3.0 87287

# Define interatomic potential with GPU acceleration
pair_style lj/cut/gpu 2.5
pair_coeff 1 1 1.0 1.0 2.5

# Setup neighbor list parameters
neighbor 0.3 bin
neigh_modify every 5 delay 0 check yes

# Disable Newton's third law for efficiency
newton off

# Define simulation settings
timestep 0.005
fix 1 all nve

# Setup for interactive molecular dynamics (IMD)
fix IMD all imd 3000

# Thermodynamic settings
thermo 500
thermo_style custom step temp pe ke etotal cpu

# Run the simulation
run 5000000
```