```lammps
# LAMMPS input script for a 2D LJ binary mixture simulation

units lj
dimension 2
atom_style atomic

# Create simulation box
region box block -30 30 -30 30 -0.1 0.1
create_box 2 box

# Create atoms
create_atoms 1 random 1500 12345 box
create_atoms 2 random 100 67890 box

# Define LJ potential with cutoff
pair_style lj/cut 2.5
pair_coeff 1 1 1.0 1.0 2.5
pair_coeff 2 2 1.0 1.0 2.5
pair_coeff 1 2 1.0 1.0 2.5

# Set mass for atom types
mass 1 1.0
mass 2 1.0

# Set initial velocities
velocity all create 1.0 12345

# Apply periodic boundary conditions
boundary p p p

# Energy minimization
minimize 1.0e-4 1.0e-6 100 1000

# Define fixes
fix 1 all nve
fix 2 all langevin 1.0 1.0 0.1 12345
fix 3 all enforce2d

# Run the simulation
timestep 0.005
thermo 1000
thermo_style custom step temp pe etotal

# Output configuration to a trajectory file
dump 1 all atom 1000 traj.lammpstrj

# Run the MD simulation
run 20000
```