```lammps
# LAMMPS Input Script for NaCl System using Core-Shell Model with Born-Mayer-Huggins Potential

units           metal
dimension       3
boundary        p p p
atom_style      full

# Create lattice and define region
lattice         fcc 5.64
region          box block 0 10 0 10 0 10
create_box      2 box
create_atoms    1 box

# Define masses
mass            1 22.989769 # Na core
mass            2 35.453    # Cl core

# Define core-shell model
fix             1 all csphere 0.2 1.0

# Pair style and coefficients
pair_style      born/coul/long/cs 10.0
pair_coeff      1 1 0.5 0.0 0.0 0.0 0.0 0.0
pair_coeff      1 2 0.5 0.0 0.0 0.0 0.0 0.0
pair_coeff      2 2 0.5 0.0 0.0 0.0 0.0 0.0

# Set up shell configuration
fix             2 all shell 1.0 1.0 1.0 1.0

# Bond style for core-shell connectivity
bond_style      harmonic
bond_coeff      1 1000.0 0.0

# Ewald summation for long-range interactions
kspace_style    ewald 1.0e-4

# Initial velocities
velocity        all create 1427.0 12345

# Equilibration with NVE and Berendsen thermostat
fix             3 all nve
fix             4 all temp/berendsen 1427.0 1427.0 100.0

# Thermodynamic properties
thermo_style    custom step temp pe ke etotal press
thermo          100

# Run equilibration
run             5000

# Switch to NPT ensemble for production run
unfix           4
fix             5 all npt temp 1427.0 1427.0 100.0 iso 0.0 0.0 1000.0

# Run production
run             10000

# End of script
```
This script sets up a periodic 3D simulation using a core-shell model with the Born-Mayer-Huggins potential for NaCl ions, and it transitions from an NVE ensemble with a Berendsen thermostat to an NPT ensemble to explore dynamic behavior at 1427 K.