```lammps
# LAMMPS input script for a BCC tantalum lattice using ZBL and MLIAP potentials

units           metal
dimension       3
boundary        p p p
atom_style      atomic

# Lattice and region definition
lattice         bcc 3.316
region          box block 0 4 0 4 0 4
create_box      1 box
create_atoms    1 box

# Define interatomic potentials
pair_style      hybrid/overlay zbl 4.0 4.8 mlip/pytorch
pair_coeff      * * zbl 73 73
pair_coeff      * * mlip/pytorch descriptor_file.pt model_file.pt

# Initial velocities
mass            1 180.94788
velocity        all create 300.0 12345

# Define simulation settings
timestep        0.0005
thermo          10
thermo_style    custom step temp pe etotal press

# Run settings
fix             1 all nve

# Run the simulation
run             100
```

This script sets up a simulation of a BCC tantalum lattice using a combination of the ZBL potential for short-range interactions and an MLIAP for more complex interactions, utilizing PyTorch for machine learning capabilities. The simulation is run using an NVE ensemble, and thermodynamic properties are output every 10 timesteps over a total of 100 timesteps.