```lammps
# LAMMPS Input Script for Spin Dynamics in BCC Iron

units metal
atom_style atomic
boundary p p p

# Define lattice and region
lattice bcc 2.8665
region box block 0 10 0 10 0 10
create_box 1 box
create_atoms 1 box

# Set mass of Fe
mass 1 55.845

# Set magnetic moment (in Bohr magnetons)
set type 1 spin 2.2

# Define pair styles
pair_style hybrid/overlay eam/alloy spin/exchange spin/dipole/long
pair_coeff * * eam/alloy Fe_mm.eam.alloy Fe
pair_coeff * * spin/exchange 1.0
pair_coeff * * spin/dipole/long 1.0

# Initialize velocities
velocity all create 100.0 12345 mom yes rot yes dist gaussian

# Spin dynamics
fix 1 all nve/spin
fix 2 all precession/spin
fix 3 all langevin/spin 100.0 100.0 0.01 12345

# Output settings
thermo 10
thermo_style custom step temp pe ke etotal spinctr

# Run the simulation
timestep 0.0001
run 100
```