```lammps
# LAMMPS input script for molecular dynamics simulation of tantalum using SNAP

# Initialize the simulation
units metal
dimension 3
boundary p p p
atom_style atomic

# Create the BCC lattice and simulation box
lattice bcc 3.316
region box block 0 4 0 4 0 4
create_box 1 box
create_atoms 1 box

# Define atomic mass
mass 1 180.88

# Define the SNAP potential
pair_style snap
pair_coeff * * Ta.snap Ta

# Initialize velocities for a temperature of 300 K with a random seed
velocity all create 300.0 12345 dist gaussian

# Set integration style
fix 1 all nve

# Output settings
thermo 10
thermo_style custom step temp pe ke etotal
thermo_modify norm yes

# Run the simulation
timestep 0.0005
run 100
```