```lammps
# LAMMPS input script for DPD simulation with thermal fluctuations

units metal
dimension 3
boundary p p p

atom_style atomic

read_data data.dpd

mass * 125.9

pair_style dpd/fdt 8.60 300.0
pair_coeff * * 0.075 0.022

neighbor 2.0 bin
neigh_modify every 1 delay 0 check yes

timestep 0.001

fix 1 all nve

thermo 10
thermo_style custom step temp press pe ke etotal

run 1000
```