```lammps
# LAMMPS input script for a 3D molecular dynamics simulation of DNA duplexes using the oxDNA model

units real
atom_style hybrid bond ellipsoid oxDNA
boundary p p p

# Read initial configuration from a data file
read_data dna_duplex.data

# Define masses for the DNA nucleotides
mass * 1.0

# Define potential interaction styles
bond_style fene/expand oxDNA
pair_style hybrid/overlay oxDNA/excluded oxDNA/stacking oxDNA/hbond oxDNA/cross oxDNA/coax

# Assign bond and pair coefficients
bond_coeff * oxDNA 30.0 1.5 1.0 1.0 1.0
pair_coeff * * oxDNA/excluded 1.0 1.0
pair_coeff * * oxDNA/stacking 1.0 1.0
pair_coeff * * oxDNA/hbond 1.0 1.0
pair_coeff * * oxDNA/cross 1.0 1.0
pair_coeff * * oxDNA/coax 1.0 1.0

# Set up integration parameters
fix 1 all nve/asphere

# Set simulation temperature
velocity all create 300.0 4928459 loop geom

# Compute energies
compute rot_kin_energy all erotate/asphere
compute kin_energy all ke
compute pot_energy all pe

# Define output for energies
thermo_style custom step temp c_rot_kin_energy c_kin_energy c_pot_energy etotal
thermo 1000

# Output trajectory data for visualization
dump 1 all custom 10000 dump.dna id type x y z ix iy iz

# Run the simulation
timestep 0.01706
run 1000000

# Write final configuration
write_data final_configuration.data
```