```lammps
# LAMMPS input script for BCC Tantalum using PyTorch MLIAP

units           metal
dimension       3
boundary        p p p
atom_style      atomic

# Create a BCC lattice of tantalum
lattice         bcc 3.316
region          box block 0 4 0 4 0 4
create_box      1 box
create_atoms    1 box

# Define atomic mass for tantalum
mass            1 180.88

# Set the machine-learned interatomic potential using PyTorch
pair_style      mlip Ta06A.pytorch.mliap
pair_coeff

# Velocity initialization
velocity        all create 300.0 12345

# Thermodynamic output
thermo          10
thermo_style    custom step temp pe etotal press
thermo_modify   norm yes

# Run the simulation
timestep        0.0005
fix             1 all nve
run             100
```