```lammps
# LAMMPS Input Script for BCC Lattice Tantalum Using SNAP and ZBL Potentials

# Initialize simulation
units metal
dimension 3
boundary p p p
atom_style atomic

# Define lattice and create box
lattice bcc 3.316
region whole block 0 4 0 4 0 4
create_box 1 whole
create_atoms 1 box

# Mass of tantalum
mass 1 180.88

# Define potentials
pair_style hybrid/overlay snap zbl 4.0 4.8
pair_coeff * * snap Ta.snap.model Ta
pair_coeff * * zbl

# Set neighbor list
neighbor 2.0 bin
neigh_modify every 1 delay 0 check yes

# Define initial velocities
velocity all create 300.0 4928459 loop geom

# Define fix
fix 1 all nve

# Set timestep
timestep 0.0005

# Run the simulation
thermo 10
thermo_style custom step temp pe etotal press
run 100
```
