```lammps
# LAMMPS Input Script for Argon Simple Cubic Lattice

units           lj
dimension       3
boundary        p f p
atom_style      atomic

# Create a simple cubic lattice
lattice         sc 0.8442
region          box block 0 10 0 10 0 10
create_box      1 box
create_atoms    1 box

# Define mass
mass            1 39.95

# LJ potential parameters
pair_style      lj/cut 8.5
pair_coeff      1 1 0.01 3.4

# Define velocity to correspond to 300 K
velocity        all create 300 12345

# Fixes
fix             1 all nve
fix             2 all wall/reflect ylo EDGE yhi EDGE
fix             3 all wall/srd yhi EDGE vel 0.0 0.1 0.0

# Thermo settings
thermo          1000
thermo_style    custom step temp pe ke etotal

# Run the simulation
timestep        0.005
run             10000
```