```lammps
# LAMMPS Input Script for SiC using EDIP potential

units metal
dimension 3
boundary p p p

atom_style atomic

# Read atomic configuration from data file
read_data data.SiC

# Specify atom masses
mass 1 28.085   # Silicon
mass 2 12.001   # Carbon

# Define potential
pair_style edip
pair_coeff * * SiC.edip Si C

# Neighbor settings
neighbor 2.0 bin
neigh_modify every 1 delay 0 check yes

# Define the integration style
fix 1 all nve

# Output settings
thermo 10

# Timestep for integration
timestep 0.001

# Run the simulation
run 100

# Uncomment the following lines for additional output options
# dump 1 all atom 10 dump.sic
# dump 2 all image 10 image.*.jpg type type
# dump_modify 2 pad 5
# movie 100 movie.mpg type type

# End of input script
```
