```lammps
# LAMMPS input script for a 2D Lennard-Jones system

units lj
dimension 2
boundary p p p

atom_style atomic

# Create simulation box
lattice sq 0.8442
region box block 0 20 0 20 -0.5 0.5
create_box 1 box
create_atoms 1 box

# Define mass and initial velocity distribution
mass 1 1.0
velocity all create 5.0 12345

# Lennard-Jones potential with a cutoff
pair_style lj/cut 2.5
pair_modify shift yes
pair_coeff 1 1 1.0 1.0 2.5

# Define neighbor list
neighbor 0.3 bin
neigh_modify every 1 delay 0 check yes

# Fixes
fix 1 all nve
fix 2 all enforce2d

# Output settings
thermo 50
thermo_style custom step temp pe ke etotal

# Run simulation to observe dynamics
run 1000

# Energy minimization
min_style cg
minimize 1e-4 1e-6 100 1000
```