```lammps
# LAMMPS Input Script for Simulating a Liquid-Vapor Interface

# Initialize simulation in LJ units
units lj
atom_style atomic

# Set up simulation box
boundary p p p
lattice fcc 0.8442
region box block 0 10 0 10 0 20
create_box 1 box

# Define liquid region and create atoms
region liquid block 0 10 0 10 0 10
create_atoms 1 region liquid

# Assign mass and initial velocities
mass 1 1.0
velocity all create 0.65 87287 loop geom

# Define Lennard-Jones potential
pair_style lj/cut 2.5
pair_coeff 1 1 1.0 1.0 2.5

# Set up NVT ensemble
fix 1 all nvt temp 0.7 0.7 0.1

# Compute stress along the z-direction
compute stress all stress/atom NULL
compute stress_z all reduce sum c_stress[3]

# Output settings
thermo 50
thermo_style custom step temp pe etotal press c_stress_z
thermo_modify line one

# Run the simulation
timestep 0.005
run 1000

# Output stress results to a file
fix 2 all ave/time 1 10 50 c_stress_z file stress_z_profile.dat mode vector
```