```lammps
units real
atom_style full
boundary p p p

# Define QM and MM groups
region box block 0 10 0 10 0 10
create_box 2 box

# QM water molecule: 3 atoms (H2O)
create_atoms 1 single 5 5 5
create_atoms 1 single 5.96 5 5
create_atoms 1 single 4.04 5 5

# MM water molecule: 3 atoms (H2O)
create_atoms 2 single 7 7 7
create_atoms 2 single 7.96 7 7
create_atoms 2 single 6.04 7 7

# Define masses
mass 1 16.00  # Oxygen
mass 2 1.008  # Hydrogen

# Define bonds and angles for MM water molecule
bond_style harmonic
bond_coeff 1 450 0.9572  # O-H bond in MM water

angle_style harmonic
angle_coeff 1 55 104.52  # H-O-H angle in MM water

# Group definitions
group qm type 1
group mm type 2

# Remove internal bonds/angles of QM group
delete_bonds qm multi remove

# Pair style and coefficients
pair_style hybrid/overlay lj/cut/coul/long 10.0
pair_coeff * * lj/cut/coul/long 0.0 0.0  # No LJ between QM atoms
pair_coeff 1 2 lj/cut/coul/long 0.1553 3.166  # MM O with QM O
pair_coeff 2 2 lj/cut/coul/long 0.1553 3.166  # MM O with MM O

# MDI/QMMM fix
fix qmmm all mdi/qmmm nwchem

# Initialization
velocity all create 300.0 12345
timestep 0.1

# Thermo settings
thermo_style custom step temp ke pe etotal
thermo 1

# Run integration
fix 1 all nve
run 10
unfix 1
```