```lammps
# LAMMPS Input Script for Spin-Lattice Simulation of Iron in Bismuth Oxide Matrix

units           metal
atom_style      spin

# Define the lattice and simulation box
lattice         sc 3.96
region          simbox block 0 10 0 10 0 10 units lattice
create_box      2 simbox

# Create atoms
create_atoms    1 box basis 1 1

# Set mass and magnetic moment
mass            1 55.845
set             type 1 spin 1.0

# Define pair styles and coefficients
pair_style      hybrid/overlay spin/exchange 3.96 spin/magelec 3.96 spin/dmi 3.96
pair_coeff      * * spin/exchange 1.0
pair_coeff      * * spin/magelec 0.1
pair_coeff      * * spin/dmi 0.05

# Set boundary conditions
boundary        p p f

# Initialize spins randomly
velocity        all create 300.0 12345 dist gaussian
spin            all random 12345

# Define neighbor list
neighbor        0.3 bin
neigh_modify    every 1 delay 0 check yes

# Define integration method
fix             1 all nve/spin
fix             2 all langevin/spin 300.0 300.0 0.1 12345

# Run parameters
timestep        0.0002
thermo          50
thermo_style    custom step temp pe ke etotal lx ly lz

# Output settings
dump            1 all custom 100 trajectory_spins.lammpstrj id type x y z sx sy sz
dump_modify     1 sort id

# Run the simulation
run             500
```