```lammps
# LAMMPS input script for 2D simulation of pouring ice cube-like particles into a container with hybrid rheological and thermal model

units lj
dimension 2
boundary p p f

atom_style hybrid sphere bond

# Define simulation domain
region box block 0 50 0 50 -0.5 0.5
create_box 2 box

# Define regions
region fluid block 5 45 5 45 -0.5 0.5
region drop block 20 30 45 50 -0.5 0.5

# Create particles in fluid region
create_atoms 1 random 1000 12345 fluid

# Define masses
mass 1 1.0
mass 2 1.0

# Define pair styles
pair_style hybrid/overlay lj/cut 1.12 rheology 1.0 1.0 viscous 1.0
pair_coeff * * lj/cut 1.0 1.0
pair_coeff * * rheology 1.0 1.0
pair_coeff * * viscous 1.0

# Define bond style
bond_style harmonic
bond_coeff 1 100.0 1.5

# Define groups
group all type 1
group fluid region fluid

# Define fixes
fix 1 all nve
fix 2 all gravity 1.0 vector 0 -1 0
fix 3 all enforce2d
fix 4 all temp/berendsen 1.0 1.0 0.1
fix 5 all viscous 0.1
fix 6 all deposit 100 2 50 12345 region drop near 2.0 attempt 10 vx -0.1 0.1 vy -0.1 0.1

# Set timestep
timestep 0.005

# Define outputs
thermo 100
thermo_style custom step temp ke pe etotal press atoms
dump 1 all custom 500 dump.particles id type x y z vx vy vz

# Run simulation
run 30000
```