```lammps
# LAMMPS Input Script for Silicon using EDIP Potential

# Initialize simulation
units metal
dimension 3
boundary p p p
atom_style atomic

# Create diamond cubic lattice
lattice custom 5.431 a1 0.5 0.5 0.0 a2 0.0 0.5 0.5 a3 0.5 0.0 0.5 &
  basis 0.0 0.0 0.0 basis 0.25 0.25 0.25
region simbox block 0 4 0 4 0 4
create_box 1 simbox
create_atoms 1 box

# Define potential
pair_style edip/multi
pair_coeff * * Si.edip

# Set mass of silicon
mass 1 28.0855

# Define simulation settings
velocity all create 1800.0 4928459 mom yes dist gaussian

# Introduce a single vacancy
delete_atoms random 1 12345

# Define NVT ensemble
fix 1 all nvt temp 1800.0 1800.0 0.1

# Set timestep
timestep 0.001

# Output settings
thermo 10
thermo_style custom step temp etotal press

# Run the simulation
run 500
```