```lammps
# LAMMPS input script for BCC W-Be alloy with MLIAP

units           metal
atom_style      atomic
boundary        p p p

# Define lattice and region
lattice         bcc 3.1803
region          box block 0 4 0 4 0 4
create_box      2 box

# Create atoms and apply randomness for alloying
create_atoms    1 box basis 1 1 basis 2 1
mass            1 183.84   # W
mass            2 9.012182 # Be

# Define groups and replace some W atoms with Be
group           tungsten type 1
group           beryllium type 2

set type 1 type/fraction 2 0.05 12345

# Specify interatomic potential
pair_style      mlip WBe_Wood_PRB2019.mliap
pair_coeff

# Initialize velocities
velocity        all create 300.0 12345

# Define simulation settings
timestep        0.0005
thermo          10
thermo_style    custom step temp etotal press

# Compute per-atom properties
compute         pe_atom all pe/atom
compute         stress_atom all stress/atom NULL
dump            1 all custom 10 dump.all id type x y z c_pe_atom c_stress_atom[1] c_stress_atom[2] c_stress_atom[3]

# Run equilibration
fix             1 all nve

# Run the simulation
run             100
```