```lammps
# LAMMPS input script for 3D molecular dynamics simulation of bcc iron with spin dynamics

units metal
atom_style atomic
atom_modify map array
boundary p p p

# Create a bcc lattice of iron
lattice bcc 2.8665
region box block 0 10 0 10 0 10
create_box 1 box
create_atoms 1 box

# Set masses and magnetic moments
mass 1 55.845
set type 1 spin 2.2

# Define pair styles
pair_style hybrid/overlay eam/alloy spin/exchange 1.0 spin/dipole/long
pair_coeff * * eam/alloy Fe_Mishin2006.eam.alloy Fe

# K-space style for long-range dipole interactions
kspace_style pppm/dipole/spin 1e-4

# Define neighbor list
neighbor 2.0 bin
neigh_modify every 1 delay 0 check yes

# Spin dynamics integration and temperature control
fix 1 all nve/spin
fix 2 all langevin/spin 300 300 0.1 12345

# Thermodynamic output
thermo 50
thermo_style custom step temp etotal evdwl ecoul epair ebond eangle edihed eimp emol elong press vol

# Compute magnetic properties
compute mag all property/atom smagx smagy smagz
compute mag_tot all reduce sum c_mag[1] c_mag[2] c_mag[3]

# Output magnetic properties
fix 3 all ave/time 50 1 50 c_mag_tot[1] c_mag_tot[2] c_mag_tot[3] file magnetization.txt

# Dump atomic positions and spin properties
dump 1 all custom 100 dump.spin id type x y z mux muy muz

# Run the simulation
timestep 0.0001
run 100
```

This script sets up and runs a molecular dynamics simulation of bcc iron with spin dynamics, using specified potentials and parameters to explore magnetic properties over a short duration.