```lammps
# LAMMPS Input Script for BCC Silicon using MEAM/SW/spline Potential

# Initialization
units           metal
dimension       3
boundary        p p p
atom_style      atomic

# Create simulation box
variable        a equal 3.2488516
lattice         bcc ${a}
region          box block 0 1 0 1 0 1
create_box      1 box
create_atoms    1 box

# Define potential
pair_style      meam/spline
pair_coeff      * * Si.meam.spline Si

# Set mass for Silicon
mass            1 28.0855

# Relaxation settings
fix             1 all box/relax aniso 0.0

# Minimization settings
min_style       cg
minimize        1.0e-25 1.0e-25 5000 10000

# Calculate properties
variable        cohesive_energy equal "pe/atoms"
variable        atomic_volume equal "vol/atoms"
variable        lattice_constant equal "lx"

# Output results
thermo_style    custom step pe lx ly lz press pxx pyy pzz
thermo          10

# Print calculated properties
print           "Cohesive energy of BCC Silicon = ${cohesive_energy} eV/atom"
print           "Atomic volume of BCC Silicon = ${atomic_volume} Å^3/atom"
print           "Relaxed lattice constant of BCC Silicon = ${lattice_constant} Å"

# Run minimization
run             0

# End of script
```