```lammps
# LAMMPS input script for 3D molecular dynamics simulation of DNA duplexes using oxDNA2 model

units lj
atom_style hybrid bond ellipsoid oxdna

# Initialize simulation box with periodic boundary conditions
boundary p p p

# Read initial configuration from a data file
read_data dna_duplex.data

# Define masses for atom types (1-4)
mass 1 315.8376
mass 2 315.8376
mass 3 315.8376
mass 4 315.8376

# Define pair interactions for oxDNA2 model
pair_style hybrid/overlay oxdna oxdna_table
pair_coeff * * oxdna

# Define bond interactions using FENE potential
bond_style fene
bond_coeff 1 30.0 1.5 0.0 1.0

# Define angles and dihedrals for oxDNA2
angle_style none
dihedral_style none

# Set the temperature and damping factor for Langevin dynamics
fix 1 all nve/limit 0.05
fix 2 all langevin 300.0 300.0 1.0 12345

# Loop over different base pairing interactions
variable i loop 4
label base_pair_loop
    if "${i} == 1" then "pair_coeff 1 2 oxdna_hb 1.0 0.5 0.5"
    if "${i} == 2" then "pair_coeff 2 3 oxdna_hb 1.0 0.5 0.5"
    if "${i} == 3" then "pair_coeff 3 4 oxdna_hb 1.0 0.5 0.5"
    if "${i} == 4" then "pair_coeff 4 1 oxdna_hb 1.0 0.5 0.5"
next i
jump SELF base_pair_loop

# Timestep for integration
timestep 0.01706

# Output settings
thermo 1000
thermo_style custom step temp pe ke etotal

# Dump trajectory for visualization
dump 1 all custom 1000 trajectory.lammpstrj id type x y z ix iy iz

# Run the simulation
run 1000000
```