```lammps
# LAMMPS input script for biaxial deformation of argon using Hardy and Cauchy-Born metrics

units real
dimension 3
boundary p p p
atom_style atomic

# Define FCC lattice
lattice fcc 5.256
region box block 0 10 0 10 0 10
create_box 1 box
create_atoms 1 box

# Define Lennard-Jones potential
pair_style lj/cut 13.5
pair_coeff 1 1 0.2381 3.405  # Argon parameters: epsilon=0.2381 kcal/mol, sigma=3.405 Å

# Mass of argon
mass 1 39.948  # Atomic mass in g/mol

# Neighbor settings
neighbor 2.0 bin
neigh_modify every 1 delay 0 check yes

# Velocity initialization
velocity all create 300.0 4928459 dist gaussian

# NVE integration
fix 1 all nve

# Define deformation and multiscale modeling
fix 2 all deform 1 xy scale 1.01 y scale 1.01 remap x
fix 3 all atc two_way cauchy stress_per_atom

# Compute stress and energy metrics
compute stress all stress/atom
compute ke all ke/atom
compute pe all pe/atom

# Output settings
thermo 100
thermo_style custom step temp press pxx pyy pzz c_stress[1] c_stress[2] c_stress[3] c_ke c_pe

# Dump settings
dump 1 all custom 100 dump.argon id type x y z vx vy vz

# Run the simulation
timestep 1.0
run 1000

# Output deformation gradient and stress
variable deformation equal "lx/ly"
variable stress_x equal "pxx"
variable stress_y equal "pyy"
variable stress_z equal "pzz"

print "Deformation gradient: ${deformation}"
print "Stress components: ${stress_x} ${stress_y} ${stress_z}"
```

This script sets up a simulation of an argon system with a focus on the deformation response under biaxial strain using Lennard-Jones interactions, and it compares the Hardy and Cauchy-Born methods. The output includes stress components and deformation gradients. Adjustments might be needed depending on the LAMMPS version and available packages.