```lammps
# LAMMPS Input Script for a 3D Lennard-Jones Melt Simulation

units lj
atom_style atomic

# Define simulation box
boundary p p p
lattice fcc 0.8442
region box block 0 10 0 10 0 10
create_box 1 box
create_atoms 1 box

# Set atom properties
mass 1 1.0

# Define interatomic potential
pair_style lj/cut 2.5
pair_coeff 1 1 1.0 1.0 2.5

# Define neighbor list
neighbor 0.3 bin
neigh_modify every 20 delay 0 check no

# Set initial velocities
velocity all create 3.0 87287

# Define custom Python script for integration (placeholder)
fix 1 all python/move 1 NULL NULL "python_script.py" NULL

# Output settings
thermo 50

# Run the simulation
run 250
```

Make sure to replace `"python_script.py"` with the actual Python script that implements the desired NVE integration logic.