```lammps
# LAMMPS Input Script for a Methane-like System using Hybrid Potential

# Initialize simulation
units real
dimension 3
boundary p p p
atom_style full

# Create simulation box
region box block 0 10 0 10 0 10
create_box 2 box

# Define atoms (methane-like and silane-like)
create_atoms 1 random 50 12345 box
create_atoms 2 random 50 67890 box

# Masses
mass 1 12.011  # methane-like
mass 2 28.085  # silane-like

# Pair style and coefficients
pair_style hybrid/overlay lj/cut 10.0 quip model_file=quip_params.xml

pair_coeff * * lj/cut 0.2 3.5  # Example values for methane-like
pair_coeff 1 2 lj/cut 0.1 3.8

# Special bonds
special_bonds lj 0.0 0.0 0.0

# QUIP potential parameters for silane-like interactions
pair_coeff * * quip_params.xml Si

# Define timestep
timestep 0.0001

# Define neighbor settings
neighbor 2.0 bin
neigh_modify every 1 delay 0 check yes

# Initial velocities
velocity all create 300.0 4928459 dist gaussian

# Fixes
fix 1 all nve

# Output settings
thermo_style custom step temp pe ke etotal press vol
thermo 1

# Run simulation
run 10
```