```lammps
# LAMMPS input script for a binary Ni-Al alloy using EAM potential

# Initialize the simulation
units metal
dimension 3
boundary p p p
atom_style atomic

# Create a lattice and define the simulation box
lattice fcc 4.05
region box block 0 10 0 10 0 10
create_box 2 box

# Create atoms
create_atoms 1 box
mass 1 58.69    # Mass of Nickel
mass 2 26.98154 # Mass of Aluminum

# Define the potential
pair_style eam
pair_coeff * * NiAl.eam.alloy Ni Al

# Assign atom types
set type 1 type/fraction 2 0.5 12345

# Initialize velocities
velocity all create 1200.0 12345 mom yes dist gaussian

# Define neighbor settings
neighbor 2.0 bin
neigh_modify every 1 delay 0 check yes

# Define the NPT ensemble with shear stress applied
fix 1 all npt temp 600.0 600.0 0.1 aniso 0.0 0.0 0.0 0.0 0.0 0.0 xy 0.5 0.5 1.0

# Output settings
thermo 100
thermo_style custom step temp etotal press pxx pyy pzz pxy pyz pxz vol

# Dump atomic configurations
dump 1 all custom 100 dump.alloy id type x y z

# Run the simulation
timestep 0.002
run 2000

# Output thermodynamic properties to files
fix 2 all ave/time 10 100 1000 c_thermo_temp c_thermo_press[1] c_thermo_press[2] c_thermo_press[3] c_thermo_press[4] c_thermo_press[5] c_thermo_press[6] v_vol file thermo_output.txt
```

This script sets up a molecular dynamics simulation for a binary Ni-Al alloy using the EAM potential, with appropriate settings for the desired conditions and outputs.