```lammps
# LAMMPS input script for molecular dynamics simulation of InP crystal using SNAP

units           metal
dimension       3
boundary        p p p
atom_style      atomic

# Create FCC lattice with diamond structure
lattice         fcc 5.83 orient x 1 0 0 orient y 0 1 0 orient z 0 0 1
region          box block 0 4 0 4 0 4
create_box      2 box
create_atoms    1 box

# Define masses for In and P
mass            1 114.818    # Indium
mass            2 30.973762  # Phosphorus

# Read SNAP potential parameters
pair_style      snap
pair_coeff      * * InP_JCPA2020.snap In P

# Set initial velocities for atoms to match 300 K
velocity        all create 300.0 12345 mom yes rot yes dist gaussian

# Define the time integration method
timestep        0.0005
fix             1 all nve

# Output thermodynamic properties
thermo          10
thermo_style    custom step temp pe ke etotal
thermo_modify   norm yes

# Run the simulation
run             100
```
