```lammps
# LAMMPS input script for evaluating force, virial stress, and Born matrix calculations in an fcc lattice

units           lj
atom_style      atomic
boundary        p p p

# Create an fcc lattice
lattice         fcc 0.8442
region          box block 0 5 0 5 0 5
create_box      1 box
create_atoms    1 box

mass            1 1.0

# Define Lennard-Jones potential
pair_style      lj/cut 5.0
pair_coeff      1 1 1.0 1.0 5.0

# Set initial velocities
velocity        all create 10.0 12345 mom yes dist gaussian

# Integrate using NVE
timestep        0.001
fix             1 all nve

# Numerical differentiation for force and virial stress
fix             2 all numdiff 1.0e-6
fix             3 all numdiff/virial 1.0e-6

# Compute the Born matrix
compute         1 all born/matrix

# Thermo settings and output
thermo          100
thermo_style    custom step temp pe etotal press
thermo_modify   norm no

# Output error metrics
variable        force_error equal f_2
variable        virial_error equal f_3
variable        born_matrix equal c_1

fix             4 all print 100 "Step: $step Force Error: ${force_error} Virial Error: ${virial_error} Born Matrix: ${born_matrix}" file output.dat screen no

# Run the simulation
run             10000
```