```lammps
# LAMMPS Input Script for 2D Simulation with Rigid Star-Shaped Particles and SRD

units lj
dimension 2
atom_style hybrid sphere molecular
boundary p p p

# Create simulation box
region box block 0 100 0 100 -0.1 0.1
create_box 2 box

# Define star-shaped particles (type 1)
# Assuming a pre-defined input file with positions and shapes
read_data star_particles.data

# Define small particles (type 2) on a high-density lattice
lattice sq2 0.8
region small_particles_region block 0 100 0 100 -0.1 0.1
create_atoms 2 region small_particles_region

# Define masses
mass 1 1.0  # Large star-shaped particles
mass 2 0.1  # Small particles

# Set velocities for equilibration
velocity all create 1.0 12345

# Define potentials
pair_style hybrid/overlay soft 1.0 lj/cut 1.0
pair_coeff * * soft 0.0 1.0 1.5
pair_coeff 1 2 lj/cut 0.1 1.0 1.5
pair_coeff 2 2 none

# Initial equilibration using soft potential
fix 1 all adapt 100 pair soft a * * v_prefactor
variable prefactor equal ramp(0.0, 1.0)

# Enforce 2D motion
fix 2 all enforce2d

# Rigid body definition for star particles
group stars type 1
fix 3 stars rigid single

# Minimize overlaps post equilibration
delete_atoms overlap 0.2 all all

# Define SRD for small particles
group small_particles type 2
fix 4 small_particles srd 0.1 0.25 0.5 collision slip

# Integration settings
timestep 0.001

# Thermo settings
thermo 100
thermo_style custom step temp etotal pe

# Run the simulation
run 10000
```