```lammps
# LAMMPS Input Script for Tantalum MD Simulation using POD Potential

# Initialize simulation
units           metal
dimension       3
boundary        p p p
atom_style      atomic

# Create simulation box
lattice         bcc 3.316
region          simbox block 0 4 0 4 0 4
create_box      1 simbox
create_atoms    1 box

# Define masses
mass            1 180.88

# Define potential
pair_style      pod
pair_coeff      * * Ta_param.pod Ta_coeff.pod

# Set the initial velocities
velocity        all create 300.0 12345

# Define the NVE ensemble
fix             1 all nve

# Set timestep and run parameters
timestep        0.0005
thermo          10

# Run the simulation
run             100

# End of script
```