```lammps
# LAMMPS input script for DPD-RX simulation with metal units

units metal
atom_style molecular
boundary p p p

# Create a hexagonal close-packed lattice
lattice hcp 3.615
region box block 0 10 0 10 0 10
create_box 1 box
create_atoms 1 box

# Define masses
mass 1 55.845  # Example mass for iron particles

# Define pair styles for DPD-RX
pair_style hybrid/overlay dpd/fdt/energy 1.0 1.0 2065 exp6/rx 1.0 1.0 1.0
pair_coeff * * dpd/fdt/energy 1.0 1.0
pair_coeff * * exp6/rx 1.0 1.0 1.0 3.0

# Set initial velocities and temperature
velocity all create 2065.0 4928459 dist gaussian mom yes rot yes
fix 1 all nve
fix 2 all shardlow 0.001

# Set initial concentrations for reactive species
set group all d_rdx 1.0
set group all d_rdy 0.0
set group all d_rdz 0.0

# Thermo and output settings
thermo_style custom step temp pe ke etotal epair evdwl
thermo 1

# Run the simulation
timestep 0.001
run 10

# Dump configuration for every timestep
dump 1 all custom 1 dump.reactive id type x y z vx vy vz
```