```lammps
# LAMMPS Input Script for BCC Niobium using UF3 Potential

# Initialize simulation
units metal
dimension 3
boundary p p p
atom_style atomic

# Create BCC lattice
lattice bcc 3.3005
region box block 0 4 0 4 0 4
create_box 1 box
create_atoms 1 box

# Define mass
mass 1 92.906

# Set potential
pair_style uf3
pair_coeff * * Nb.uf3 Nb

# Initial velocity
velocity all create 300.0 12345

# Define simulation settings
timestep 0.0005
thermo 10

# Run NVE ensemble
fix 1 all nve

# Run simulation
run 100
```