```lammps
# LAMMPS input script for a CO2-water mixture simulation using TIP4P water model

units real
atom_style full
boundary p p p

# Create simulation box
region box block -20 20 -20 20 -20 20
create_box 2 box

# Define atom masses (in g/mol)
mass 1 12.01   # CO2 C
mass 2 16.00   # CO2 O
mass 3 0.0     # TIP4P water dummy atom (massless)
mass 4 1.008   # TIP4P water H
mass 5 15.9994 # TIP4P water O

# Pair style and coefficients
pair_style lj/cut/tip4p/long 1 2 1 1 0.125 12.0
pair_coeff 1 1 0.0560 3.850  # CO2 C-C
pair_coeff 1 2 0.0560 3.050  # CO2 C-O
pair_coeff 2 2 0.1700 2.800  # CO2 O-O
pair_coeff 5 5 0.16275 3.16435 # TIP4P O-O
pair_coeff 1 5 0.0470 3.425  # CO2 C-TIP4P O
pair_coeff 2 5 0.0910 2.900  # CO2 O-TIP4P O

# Bond and angle styles
bond_style harmonic
angle_style harmonic

# Bond coefficients
bond_coeff 1 469.0 1.16  # CO2 C=O
bond_coeff 2 0.0 0.9572  # TIP4P OH (for SHAKE)

# Angle coefficients
angle_coeff 1 87.0 180.0  # CO2 O=C=O
angle_coeff 2 0.0 104.52  # TIP4P H-O-H (for SHAKE)

# Read initial data from a data file or create molecules manually
# Here, we'll assume the molecules are created through some predefined data

# Define groups for SHAKE
group water type 3 4 5

# Fixes for SHAKE, NVT, and NPT
fix shake_bonds water shake 0.0001 20 0 b 2 a 2
fix nvt all nvt temp 300.0 300.0 100.0
run 10000  # Equilibrate in NVT ensemble

unfix nvt
fix npt all npt temp 300.0 300.0 100.0 iso 1.0 1.0 1000.0
run 50000  # Equilibrate in NPT ensemble

# Output settings
thermo 100
thermo_style custom step temp press etotal
dump 1 all atom 1000 dump.co2_water.lammpstrj

# Run simulation
run 100000
```

This script sets up a molecular dynamics simulation of a CO2-water mixture using the specified TIP4P water model and TRAPPE model for CO2, with SHAKE constraints applied to water molecules. The simulation transitions from an NVT to an NPT ensemble, outputting thermodynamics data and atomic trajectories for analysis.