```lammps
# LAMMPS Input Script for 3D Lennard-Jones Melt Simulation using KIM API

units           lj
atom_style      atomic
boundary        p p p

# Define variables for simulation box dimensions
variable        x equal 20
variable        y equal 20
variable        z equal 20

# Create an FCC lattice of argon atoms
lattice         fcc 4.4300
region          box block 0 ${x} 0 ${y} 0 ${z}
create_box      1 box
create_atoms    1 box

# Define mass for Argon atoms
mass            1 39.95

# Initialize velocities
velocity        all create 200.0 12345

# KIM API - Define Lennard-Jones potential for Argon
kim_init        args LennardJones_Ar_P_Morse
pair_style      kim
pair_coeff      * * Ar

# Neighbor list settings
neighbor        0.3 bin
neigh_modify    every 1 delay 0 check yes

# Run settings
timestep        0.001

# Equilibration using microcanonical ensemble
fix             1 all nve

# Uncomment the following lines for isothermal-isobaric ensemble exploration
#fix             2 all npt temp 200.0 200.0 0.1 iso 0.0 0.0 1.0

# Run the simulation
run             100

# Clean up
unfix           1
#unfix          2
```
