```lammps
# LAMMPS input script for BCC tantalum with ACE potential via MLIAP/PyTorch

# Initialization
units           metal
dimension       3
boundary        p p p
atom_style      atomic

# Create a BCC lattice and replicate
lattice         bcc 3.316
region          box block 0 4 0 4 0 4
create_box      1 box
create_atoms    1 box

# Mass of tantalum
mass            1 180.88

# MLIAP pair style with PyTorch model
pair_style      mliap model pytorch model_file ACE_NN_Pytorch.pt descriptor_file ccs_single_element.yace
pair_coeff

# Compute potential energy and stress per atom
compute         pe_atom all pe/atom
compute         stress_atom all stress/atom NULL

# Define thermodynamic output
thermo          10
thermo_style    custom step temp etotal press
thermo_modify   norm no

# Velocity initialization
velocity        all create 300.0 12345

# Integrate using NVE ensemble
fix             1 all nve

# Output settings
# Uncomment the following line to enable dump for visualization
# dump            1 all custom 100 dump.ta id type x y z

# Run the simulation
timestep        0.0005
run             1000
```