```lammps
units           lj
atom_style      atomic
dimension       3

boundary        f p p

lattice         fcc 0.8442
region          box block 0 20 0 10 0 10
create_box      1 box
create_atoms    1 box

mass            1 1.0

pair_style      lj/cut 13.5
pair_coeff      1 1 1.0 1.0 13.5

# Define groups
group           all type 1
region          left block INF 0.5 INF INF INF INF
group           left region left
group           internal subtract all left

# Initialize velocities
velocity        all create 1.0 12345

# Atom-to-continuum (AtC) setup
fix             atc all atc two_temperature
fix_modify      atc mesh fem region box
fix_modify      atc ghost_region left
fix_modify      atc couple_style thermal
fix_modify      atc couple ghost

# Thermal coupling with rescale
fix             thermostat internal temp/rescale 10 1.0 1.0 0.02 1.0
fix_modify      thermostat temperature temp/internal

# Apply fixed boundary condition
fix             left_temp left setforce 0.0 0.0 0.0
fix             left_heat left temp/rescale 10 2.0 2.0 0.02 1.0

# Switch to Hoover thermostat after initial rescale
run             5000
unfix           thermostat
fix             thermostat internal nvt temp 1.0 1.0 0.1

# Output settings
thermo_style    custom step temp pe ke etotal
thermo          500
dump            1 all custom 1000 dump.thermal id type x y z vx vy vz

# Run the simulation
timestep        5
run             20000
```