```lammps
# LAMMPS input script for FCC Nickel with spin dynamics

units metal
atom_style spin
boundary p p p

# Create FCC lattice
lattice fcc 3.52
region box block 0 10 0 10 0 10
create_box 1 box
create_atoms 1 box

# Set mass for Nickel
mass 1 58.6934

# Define pair style and coefficients
pair_style hybrid/overlay eam/alloy spin/exchange 4.0
pair_coeff * * eam/alloy Ni_u3.eam
pair_coeff * * spin/exchange 4.0

# Initialize velocities and spins
velocity all create 100.0 12345 dist gaussian
spin random 12345

# Neighbor settings
neighbor 2.0 bin
neigh_modify delay 0 every 1 check yes

# Define simulation parameters
timestep 0.0001

# Fixes for spin dynamics
fix 1 all nve/spin
fix 2 all precession/spin
fix 3 all langevin/spin 100.0 100.0 0.1 12345

# Thermo settings
thermo 50
thermo_style custom step temp pe ke etotal

# Dump settings
dump 1 all custom 50 dump.spins id type x y z sx sy sz fx fy fz

# Run the simulation
run 1000
```