```lammps
# LAMMPS input script for a 3D Lennard-Jones melt simulation using ML interatomic potentials

# Initialize simulation
units lj
atom_style atomic
boundary p p p

# Create atoms
lattice fcc 0.8442
region box block 0 10 0 10 0 10
create_box 1 box
create_atoms 1 box

# Define mass and velocity
mass 1 1.0
velocity all create 3.0 12345

# Set up ML interatomic potential
pair_style mliap unified
pair_coeff * * mliap_unified_jax_Ar.pkl

# Define neighbor list
neighbor 0.3 bin
neigh_modify every 20 delay 0 check yes

# Define integrator
fix 1 all nve

# Output settings
thermo 1
thermo_style custom step temp pe etotal
dump 1 all xyz 10 output.xyz

# Run the simulation
timestep 0.001
run 250
```
