```lammps
# LAMMPS input script for a pure copper (Cu) crystal using COMB potential

# Initialize simulation
units metal
atom_style charge
boundary p p p

# Create geometry
lattice fcc 3.615
region box block 0 4 0 4 0 4
create_box 1 box
create_atoms 1 box

# Define mass
mass 1 63.54

# Potential settings
pair_style comb
pair_coeff * * ffield.comb Cu

# Set initial velocities
velocity all create 10.1 12345 mom yes rot yes dist gaussian

# Define settings for the simulation
neighbor 2.0 bin
neigh_modify delay 0 every 1 check yes

# Output settings
thermo_style custom step temp etotal pe evdwl ecoul press lx ly lz
thermo 1

# Uncomment the following line to dump atom positions
# dump 1 all atom 1 dump.cu

# Run settings
timestep 0.00020
fix 1 all nve

# Run the simulation
run 10
```