```lammps
# LAMMPS input script for 2D simulation of point dipoles on a square lattice

# Initialization
units lj
dimension 2
atom_style hybrid sphere dipole
boundary p p p

# Create a square lattice
lattice sq2 0.7
region box block 0 10 0 10 -0.5 0.5
create_box 1 box
create_atoms 1 box

# Set mass and dipole moments
mass 1 1.0
set type 1 dipole/random 0.75 12345

# Define pair style and coefficients
pair_style lj/cut/dipole/cut 2.5
pair_coeff 1 1 1.0 1.0 2.5

# Set initial velocities to zero
velocity all set 0.0 0.0 0.0
velocity all set 0.0 0.0 0.0 dipole

# Define neighbor list
neighbor 0.3 bin
neigh_modify every 1 delay 0 check yes

# Apply fixes
fix 1 all nve/sphere update dipole
fix 2 all enforce2d

# Run the simulation
timestep 0.005
thermo 500
thermo_style custom step temp pe ke etotal press

# Run the simulation for 10,000 steps
run 10000
```