```lammps
# LAMMPS input script for a 3D LJ melt simulation using the Stillinger-Weber potential

# Initialize simulation
units           metal
dimension       3
boundary        p p p
atom_style      atomic

# Lattice and region
variable        a equal 4.4300
lattice         fcc ${a}
variable        x equal 20
variable        y equal 20
variable        z equal 20
region          simbox block 0 ${x} 0 ${y} 0 ${z}
create_box      1 simbox
create_atoms    1 box

# Mass and potential
mass            1 28.0855

# Set potential using KIM model for Stillinger-Weber silicon
kim_init        SW_StillingerWeber_1985_Si__MO_405512056662_005
pair_style      kim
pair_coeff      * * Si

# Neighbor list
neighbor        0.3 bin
neigh_modify    every 1 delay 0 check yes

# Initial velocities
velocity        all create 200.0 4928459

# Define simulation settings
timestep        0.001

# Fixes
fix             1 all nve

# Uncomment the following lines to switch to NPT ensemble
# fix             2 all npt temp 200.0 200.0 0.1 iso 1.0 1.0 1.0

# Run the simulation
run             100

# Clean up
unfix           1
# unfix           2
```