```lammps
# LAMMPS input script for 3D DPD simulation of a binary fluid mixture

# Initialize simulation in reduced Lennard-Jones units
units lj
dimension 3
boundary p p p
atom_style atomic

# Create a face-centered cubic lattice and define simulation box
lattice fcc 5.0
region box block 0 5 0 5 0 5
create_box 2 box

# Define masses for two types of particles
mass 1 1.0
mass 2 2.0

# Create atoms for the two particle types
create_atoms 1 box
create_atoms 2 box

# Define DPD/ext pair style and coefficients
pair_style dpd/ext 1.0 1.0
pair_coeff * * 25.0 4.5 1.0
pair_coeff 1 2 30.0 4.5 1.0

# Set initial velocities to achieve the desired temperature
velocity all create 1.0 12345

# Define groups for the two types of particles
group type1 type 1
group type2 type 2

# Set up the integration method
timestep 0.01
fix 1 all nve

# Output settings for monitoring thermodynamic properties
thermo 100
thermo_style custom step temp press

# Run the simulation
run 5000
```