```lammps
# LAMMPS Input Script for Liquid Methane Equilibration with Quantum Thermal Bath

units real
atom_style charge
boundary p p p

# Define methane lattice
lattice custom 5.00 a1 1.0 0.0 0.0 a2 0.0 1.0 0.0 a3 0.0 0.0 1.0 &
        basis 0.0 0.0 0.0 basis 0.25 0.25 0.25 basis 0.75 0.75 0.75

region box block 0 10 0 10 0 10
create_box 2 box

# Define atoms
create_atoms 1 box basis 1 1 basis 2 2 basis 3 2

mass 1 12.01  # Carbon
mass 2 1.008  # Hydrogen

# ReaxFF force field
pair_style reaxff
pair_coeff * * ffield.reax.CH C H

# Charge equilibration
fix qeq all qeq/reax 1 0.0 10.0 1e-6 reax/c

# Quantum Thermal Bath
fix qtb all qtb 110.0 200.0

# Time integration
timestep 0.25
fix nve all nve

# Thermodynamics
thermo 50
thermo_style custom step temp press etotal vol
thermo_modify lost ignore flush yes

# Run the simulation
run 1000

# End of script
```