```lammps
# LAMMPS Input Script for Cyclohexane-Methane Mixture Simulation

units real
atom_style molecular
boundary p p p

# Define simulation box
lattice fcc 10.0
region simbox block 0 10 0 10 0 10
create_box 2 simbox

# Define masses
mass 1 84.16  # Cyclohexane
mass 2 16.04  # Methane

# Define potential styles
pair_style lj/cut 12.0
bond_style harmonic
angle_style harmonic
dihedral_style harmonic

# Interaction parameters
pair_coeff * * 0.0 0.0  # Default to zero for safety
pair_coeff 1 1 0.520 6.0  # Cyclohexane-Cyclohexane
pair_coeff 2 2 0.294 3.7  # Methane-Methane
pair_coeff 1 2 0.392 4.85 # Cyclohexane-Methane

bond_coeff 1 300.0 1.54
angle_coeff 1 40.0 109.5
dihedral_coeff 1 5.0 180.0  # Example values

# Create molecules
molecule cyclohexane molecule-template.txt
create_atoms 1 random 100 12345 simbox mol cyclohexane 12345
create_atoms 2 random 200 67890 simbox

# Define groups
group cyclohexane type 1
group methane type 2

# Initial velocities
velocity all create 100.0 12345

# Minimization
minimize 1.0e-4 1.0e-6 100 1000

# Equilibration
fix 1 all nvt temp 100.0 300.0 100.0

# Output settings
thermo 100
thermo_style custom step temp press pe ke etotal

# Run simulation
timestep 1.0
run 2500

# Clean up
unfix 1
```

Note: The parameters for Lennard-Jones, bond, angle, and dihedral interactions are illustrative and should be adjusted based on the specific force field or experimental data applicable to your system. The molecule-template file for cyclohexane should be prepared according to your molecular structure and connectivity.