```lammps
# LAMMPS input script for shock dynamics in an fcc lattice using MSST

units           real
dimension       3
boundary        p p p
atom_style      atomic

lattice         fcc 3.615
region          box block 0 18 0 18 0 18
create_box      1 box
create_atoms    1 box

mass            1 39.948  # Argon mass in amu

pair_style      lj/cut 10.0
pair_coeff      1 1 0.2381 3.405  # Lennard-Jones parameters for Argon

neighbor        0.3 bin
neigh_modify    every 1 delay 0 check yes

timestep        2.0  # fs
thermo_style    custom step temp ke pe etotal lx ly lz press pxx pyy pzz v_hugoniot_energy v_rayleigh_slope
thermo          100

velocity        all create 600.0 12345 mom yes dist gaussian

fix             1 all nve
fix             2 all msst z 28.0 q 200.0 mu 300.0 temp 0.01

variable        hugoniot_energy equal f_2[1]
variable        rayleigh_slope equal f_2[2]

dump            1 all atom 100 dump.msst.lammpstrj
dump_modify     1 sort id

run             10000
```