```lammps
# LAMMPS Input Script for Molecular Dynamics Simulation of FCC Copper

units metal
boundary p p p
atom_style atomic

# Define lattice and create simulation box
lattice fcc 3.597
region box block 0 4 0 4 0 4
create_box 1 box
create_atoms 1 box

# Set mass for copper
mass 1 26.98

# Specify the potential using ACE recursive potential
pair_style pace recursive
pair_coeff * * Cu-PBE-core-rep.ace Cu

# Initialize velocities for temperature of 300 K
velocity all create 300.0 12345

# Define the integration timestep
timestep 0.0005

# Set up NVE ensemble
fix 1 all nve

# Compute per-atom potential energy and stress
compute pe_atom all pe/atom
compute stress_atom all stress/atom NULL

# Thermodynamic output
thermo 10
thermo_style custom step temp etotal press

# Run the simulation
run 100
```
