```lammps
# LAMMPS Input Script for 2D Simulation of Ellipsoidal Particles in LJ Fluid

units lj
dimension 2
boundary p p p

atom_style hybrid sphere ellipsoid
newton on

# Create a 20x20 lattice and region
lattice sq2 0.8
region box block 0 20 0 20 -0.5 0.5
create_box 2 box

# Create atoms with a fraction of type 2
create_atoms 1 box
group type1 type 1
group type2 type 2
set group type2 type/fraction 0.2 12345

# Define ellipsoids for type 2
set type 2 shape 3.0 1.0 1.0

# Set masses
mass 1 1.0
mass 2 1.5

# Define pair style and coefficients
pair_style resquared 1.0
pair_coeff * * 1.0 1.0 1.0
pair_coeff 1 2 1.0 1.0 1.0
pair_coeff 2 2 1.0 1.0 1.0

# Define neighbor list
neighbor 0.8 bin
neigh_modify every 1 delay 0 check yes

# Define computes for temperature and rotational degrees of freedom
compute temp_all all temp/asphere

# Initialize velocities
velocity all create 2.4 12345 dist gaussian

# Define initial thermo output
thermo 100
thermo_style custom step c_temp_all pe ke etotal press vol

# Minimize energy to start with a stable structure
minimize 1.0e-4 1.0e-6 100 1000

# Equilibration using npt/asphere
fix 1 all npt/asphere temp 2.4 2.4 1.0 iso 0.0 0.0 1.0
run 5000

# Switch to constant volume for dynamics
unfix 1
fix 2 all nve/asphere

# Output configuration data
dump 1 all custom 100 dump.ellipsoid id type x y z quatw quati quatj quatk shape

# Run the simulation
run 10000
```