```lammps
# LAMMPS input script for a DPD simulation with energy conservation

units metal
atom_style atomic

# Read initial configuration from a data file
read_data data.fluid

# Define simulation box with periodic boundary conditions
boundary p p p

# DPD interaction parameters
pair_style dpd/fdt/energy 8.6
pair_coeff * * 25.0 4.5 1.0 8.6

# Set particle mass
mass * 125.9

# Communicate using a single mode
comm_modify mode single

# Initialize velocities (optional, could be from data file)
velocity all create 1.0 12345

# Define fixes for integration and energy conservation
fix 1 all nve
fix 2 all dpd/energy 1.0
fix 3 all eos/cv

# Set timestep
timestep 0.001

# Thermodynamic output every 10 steps
thermo 10
thermo_style custom step temp press pe ke etotal

# Run the simulation for 1000 timesteps
run 1000
```