```lammps
# LAMMPS input script for 2D simulation of polydisperse spheres with SRD

# Initialization
units lj
dimension 2
atom_style atomic
boundary p p p

# Create simulation box
region box block 0 50 0 50 -0.5 0.5
create_box 3 box

# Create large particles on a square lattice
lattice sq 0.3
region large_particles block 0 50 0 50 -0.5 0.5
create_atoms 1 region large_particles
group large_particles type 1

# Assign different types and sizes to large particles
set group large_particles type/fraction 2 0.3 12345
set group large_particles type/fraction 3 0.3 23456
set type 1 diameter 1.0
set type 2 diameter 1.2
set type 3 diameter 1.5
mass * 1.0

# Define Lennard-Jones potential with repulsive interactions
pair_style lj/cut 1.12246
pair_coeff * * 1.0 1.0 1.12246

# Equilibration of large particles
velocity all create 1.0 12345
fix 1 all nve
run 1000

# Create small particles on a high-density lattice
lattice sq 1.0
region small_particles block 0 50 0 50 -0.5 0.5
create_atoms 2 region small_particles
group small_particles type 2
mass 2 0.1

# Remove overlapping small particles
delete_atoms overlap 0.1 all all

# Define interactions between small and large particles
pair_coeff 1 2 0.5 1.0 1.12246
pair_coeff 2 3 0.5 1.0 1.12246

# Apply Stochastic Rotation Dynamics (SRD)
fix 2 small_particles srd 0.5 0.25 12345 hydro yes

# Additional simulation for SRD dynamics
thermo 100
thermo_style custom step temp pe ke etotal
thermo_modify lost ignore
run 10000
```