# LAMMPS input script for a simple rigid body system using Lennard-Jones units

units           lj
atom_style      atomic

# Read particle data from file
read_data       data.rigid

# Define inter-particle potential
pair_style      lj/cut 2.5
pair_coeff      * * 1.0 1.0 2.5

# Initialize velocities
velocity        all create 100.0 12345

# Define groups for each clump
group           clump1 id 1:9
group           clump2 id 10:18
group           clump3 id 19:27
group           clump4 id 28:36
group           clump5 id 37:45
group           clump6 id 46:54
group           clump7 id 55:63
group           clump8 id 64:72
group           clump9 id 73:81

# Set up rigid bodies, excluding self-interactions within each clump
fix             1 all rigid group 9 clump1 clump2 clump3 clump4 clump5 clump6 clump7 clump8 clump9 bodyfile bodyinfo.dat

# Exclude intra-group interactions
neigh_modify    exclude group clump1 clump1
neigh_modify    exclude group clump2 clump2
neigh_modify    exclude group clump3 clump3
neigh_modify    exclude group clump4 clump4
neigh_modify    exclude group clump5 clump5
neigh_modify    exclude group clump6 clump6
neigh_modify    exclude group clump7 clump7
neigh_modify    exclude group clump8 clump8
neigh_modify    exclude group clump9 clump9

# Define timestep
timestep        0.0001

# Output thermodynamic properties
thermo          50

# Run the simulation
run             10000
