# LAMMPS input script for 3D Lennard-Jones melt with MLIAP model

units lj
atom_style atomic

# Define the lattice and create the simulation box
lattice fcc 0.8442
region box block 0 10 0 10 0 10
create_box 1 box
create_atoms 1 box

# Define masses
mass 1 1.0

# Set initial velocities
velocity all create 3.0 12345 mom yes rot yes dist gaussian

# Machine Learning Interatomic Potential (MLIAP) setup
pair_style mlip
pair_coeff * * argon_model.mlip # Assume argon_model.mlip is the MLIAP file

# Neighbor settings
neighbor 0.3 bin
neigh_modify every 20 delay 0 check yes

# Define simulation settings
fix 1 all nve

# Output settings
thermo 50
thermo_style custom step temp pe ke etotal

# Run the simulation
run 250

This script assumes the existence of a machine learning potential file named `argon_model.mlip` that has been pre-trained for argon. The script sets up a Lennard-Jones melt using this MLIAP and executes the simulation as described.