# LAMMPS input script for simulating a spherical droplet of Lennard-Jones particles

units lj
atom_style atomic

# Define simulation box
region box block -10 10 -10 10 -10 10
create_box 1 box

# Define face-centered cubic lattice and create atoms
lattice fcc 0.8442
region droplet sphere 0 0 0 5
create_atoms 1 region droplet

# Set masses
mass 1 1.0

# Define Lennard-Jones potential
pair_style lj/cut 2.5
pair_coeff 1 1 1.0 1.0 2.5

# Generate initial velocities
velocity all create 0.65 12345

# Set neighbor list parameters
neighbor 0.3 bin
neigh_modify every 20 delay 0 check no

# Define fixes
fix 1 all nvt temp 0.65 0.65 0.1

# Compute stress
compute stress all stress/atom NULL

# Define output settings
thermo 50
thermo_style custom step temp pe press

# Run the simulation
run 1000

# Output stress data
fix 2 all ave/time 50 1 50 c_stress[1] c_stress[2] c_stress[3] file stress.dat mode vector
