# LAMMPS input script for CHO system with ReaxFF

units real
atom_style charge

# Read initial structure
read_data data.CHO

# Define force field
pair_style reaxff
pair_coeff * * ffield.reax.hco H C O

# Neighbor list settings
neighbor 2.0 bin
neigh_modify every 10 delay 0 check no

# Define simulation parameters
timestep 0.25

# Set up charge equilibration
fix qeq all qeq/reax 1 0.0 10.0 1e-6 reax/c
fix 1 all nve

# Temperature control
fix 2 all temp/berendsen 500.0 500.0 100.0

# Output settings
thermo 100
thermo_style custom step time temp pe ke etotal press

# Run simulation
run 3000
