# LAMMPS input script for a BCC lattice in a triclinic box

# Initialize simulation
units           lj
atom_style      atomic
boundary        p p p

# Define custom BCC lattice
lattice custom 1.0 &
  a1 1.0 0.0 0.0 &
  a2 0.5 0.86602540378 0.0 &
  a3 0.5 0.28867513459 0.81649658093 &
  basis 0.0 0.0 0.0 &
  basis 0.5 0.5 0.5

# Create simulation box
region mybox prism 0 2 0 2 0 2 0 0 0 units lattice
create_box 1 mybox
create_atoms 1 box

# Set atom masses
mass 1 1.0

# Define Lennard-Jones potential
pair_style lj/cut 1.1
pair_coeff 1 1 1.0 1.0 1.1

# Neighbor list settings
neighbor 0.0 bin
neigh_modify every 1 delay 0 check yes

# Thermodynamic output
thermo_style custom step temp etotal press pxx pyy pzz pxy pxz pyz vol
thermo 1

# Dump settings
dump myDump all atom 100 dump.lammpstrj

# Run setup for 0 timesteps
run 0

# Write configuration to data file
write_data bcc_triclinic.data
