# LAMMPS Input Script for FEP with Hybrid Potentials

units real
atom_style full
boundary p p p

# Read initial configuration
read_data system.data

# Define potential styles
pair_style hybrid lj/cut/coul/long 12.0 lj/cut/coul/long/soft 12.0
bond_style harmonic
angle_style harmonic
dihedral_style opls

# Define pair coefficients
pair_coeff * * lj/cut/coul/long 0.15 3.5
pair_coeff * * lj/cut/coul/long/soft 0.15 3.5 2.0

# Define bond coefficients
bond_coeff * 300.0 1.0

# Define angle coefficients
angle_coeff * 50.0 109.5

# Define dihedral coefficients
dihedral_coeff * 1.0 0.0 1.0 0.0

# Define long-range electrostatics
kspace_style pppm 1.0e-4

# Define SHAKE constraints
fix shake_fix all shake 0.0001 20 0 b 1 a 1

# Define NPT ensemble
fix npt_fix all npt temp 300.0 300.0 100.0 iso 1.0 1.0 1000.0

# Define FEP setup
variable lambda equal ramp(0.0,1.0)
fix fep_fix all adapt 1000 pair lj/cut/coul/long/soft scale * * v_lambda
fix_modify fep_fix energy yes

# Output settings
thermo 1000
thermo_style custom step temp press density etotal
dump 1 all atom 10000 trajectory.lammpstrj

# Equilibration phase
run 200000

# FEP calculation phase
reset_timestep 0
run 2000000

# Output FEP results
variable dG equal f_ep
print "Free energy difference: ${dG}"

# End of script
