# LAMMPS input script for thermal simulation using AtC package

units           metal
dimension       3
boundary        f p p
atom_style      atomic

# Create simulation box and atoms
lattice         fcc 4.05
region          simbox block 0 10 0 5 0 5
create_box      1 simbox
create_atoms    1 box

# Define potentials
pair_style      lj/cut 8.5
pair_coeff      1 1 0.2381 3.405 8.5

# Set initial temperature
velocity all create 20.0 12345 mom yes dist gaussian

# Define AtC mesh
fix             mesh atc mesh create 1.0 1.0 1.0 10 10 10

# Define AtC fields and couple atomic-continuum
fix_modify      mesh AtC thermal
fix             thermal atc thermal scalar temperature field

# Set initial temperature field
fix_modify      thermal set_temperature 20.0

# Boundary conditions
fix             temp_left atc boundary temperature xlo 20.0
fix             temp_right atc boundary temperature xhi 20.0

# Run first phase
thermo_style    custom step temp epair etotal
thermo          100
timestep        0.001
run             5000

# Change boundary conditions: introduce heat flux
fix_modify      temp_right remove
fix             flux_right atc boundary flux xhi 1.0

# Run second phase
run             5000

# Output AtC data for analysis
dump            atc_dump all custom 1000 atc_data.* id type x y z fx fy fz
