# LAMMPS input script for InP crystal using ChemSNAP potential

units           metal
atom_style      atomic
boundary        p p p

# Define lattice and create box
lattice         fcc 5.83
region          box block 0 4 0 4 0 4
create_box      2 box

# Create atoms
create_atoms    1 box basis 1 1 basis 2 2

# Define masses
mass            1 114.76  # indium
mass            2 30.98   # phosphorus

# Read ChemSNAP potential for InP
pair_style      mliap model InP_JCPA2020.mliap
pair_coeff      * *

# Define initial velocities
velocity        all create 300.0 12345

# Define simulation settings
timestep        0.0005
thermo          10

# Run simulation
fix             1 all nve
run             100
