# LAMMPS input script for LJ Argon in reduced units

units lj
atom_style atomic

# Variables for domain dimensions
variable x equal 5
variable y equal 5
variable z equal 5

# Create simulation box
lattice fcc 0.8842
region box block 0 ${x} 0 ${y} 0 ${z}
create_box 1 box
create_atoms 1 box

mass 1 1.0

# Lennard-Jones potential
pair_style lj/cut 2.5
pair_coeff 1 1 1.0 1.0 2.5

# Neighbor list
neighbor 0.3 bin
neigh_modify every 1 delay 0 check yes

# Initial velocities
velocity all create 1.0 12345

# Fix for NVE ensemble
fix 1 all nve

# Thermodynamic output
thermo 10
thermo_style custom step temp etotal press

# Run the simulation
timestep 0.005
run 100
