# LAMMPS input script for 2D hexagonal lattice Lennard-Jones fluid

# Initialize simulation
units lj
dimension 2
boundary p p p
atom_style atomic

# Create hexagonal lattice
lattice hex 1.0
region box block 0 1 0 1 0 0.1
create_box 1 box
create_atoms 1 box

# Define mass
mass 1 1.0

# Define interatomic potential
pair_style lj/cut 1.1
pair_coeff 1 1 1.0 1.0 1.1

# Neighbor list settings
neighbor 0.0 bin
neigh_modify every 1 delay 0 check yes

# Define settings for thermo output
thermo_style custom step temp pe ke etotal press pxx pyy v_vx v_vy
thermo 100

# Dump configuration
dump 1 all atom 100 dump.lammpstrj

# Run the simulation
run 0
