# LAMMPS Input Script for FEP of Heptane Molecules

units real
atom_style full

# Read initial configuration
read_data heptane.data

# Define pair styles and potential settings
pair_style hybrid lj/class2/coul/long 10.0 lj/class2/coul/long/soft 10.0
pair_coeff * * lj/class2/coul/long 0.093 3.95
pair_coeff * * lj/class2/coul/long/soft 0.093 3.95

# Apply mixing rules and tail corrections
pair_modify mix sixth tail yes

# Set up force fields for bonded interactions
bond_style class2
angle_style class2
dihedral_style class2
improper_style class2

# Define groups for FEP
group heptane type 1 2 3

# Thermostat for NVT ensemble
fix 1 all nvt temp 300.0 300.0 100.0

# Free energy perturbation setup
fix 2 heptane adapt/fep lambda 0.0 1.0 100000 coul/long

# Output settings
thermo 1000
thermo_style custom step temp press vol pe etotal f_2

# Run the simulation
run 100000

# Write the system state after the simulation
write_data post_simulation.data
