# 2D Dam Break Simulation with Rheological Model

units lj
dimension 2
atom_style granular

# Define simulation box
region simbox block 0 100 0 50 -0.1 0.1
create_box 2 simbox

# Create fluid particles using a hexagonal lattice
lattice hex 0.7
region fluid block 5 25 0 10 -0.1 0.1
create_atoms 1 region fluid

# Create rigid wall particles
region wall1 block 0 5 0 50 -0.1 0.1
create_atoms 2 region wall1
region wall2 block 25 30 0 50 -0.1 0.1
create_atoms 2 region wall2

# Define interaction parameters
pair_style custom/rheological 1.0 1.0 0.5
pair_coeff * * 1.0 1.0 1.0

# Define material properties
variable rho equal 1.0
variable c equal 20.0
variable mu equal 0.1

# Set neighbor settings for efficient computation
neighbor 0.3 bin
neigh_modify delay 0 every 1 check yes

# Fix rigid wall particles
group wall type 2
fix holdwall wall setforce 0.0 0.0 0.0

# Define gravity
fix gravity all gravity 1.0 vector 0 -1.0 0.0

# Output settings
thermo 100
thermo_style custom step time ke press

# Timestep for stability
timestep 0.001

# Run the simulation
run 30000
