# LAMMPS input script for 2D hexagonal lattice with LJ interactions

dimension 2
units lj
atom_style atomic

# Create a 2D hexagonal lattice of particles
lattice hex 0.8442
region box block 0 10 0 10 -0.5 0.5
create_box 1 box
create_atoms 1 box

# Define interaction potentials
pair_style lj/cut 2.5
pair_coeff 1 1 1.0 1.0 2.5

# Set up boundary conditions
boundary f f p

# Define regions for wall potentials
region left_wall block INF 0 INF INF INF INF
region right_wall block 10 INF INF INF INF INF
region bottom_wall block INF INF INF 0 INF INF
region top_wall block INF INF 10 INF INF INF

# Apply LJ 9-3 wall potentials
fix left_wall all wall/lj93 xlo EDGE 1.0 1.0 2.5
fix right_wall all wall/lj93 xhi EDGE 1.0 1.0 2.5
fix bottom_wall all wall/lj93 ylo EDGE 1.0 1.0 2.5
fix top_wall all wall/lj93 yhi EDGE 1.0 1.0 2.5

# Initialize velocities for a circular region
region circle block 3 7 3 7 -0.5 0.5
group circle region circle
velocity circle set 0.5 0.5 0.0

# Setup for integration and simulation
comm_style tiled
fix 1 all nve
fix 2 all balance 1.0 shift xyz 20 1.1

# Thermodynamic output
thermo 10
thermo_style custom step temp epair press

# Output data
dump 1 all custom 10 dump.lammpstrj id type x y z vx vy vz
dump 2 all adios 10 dump.bp id type x y z vx vy vz

# Run the simulation
run 200
