# LAMMPS input script for SPC/E water simulation with MD and GCMC

units real
atom_style full
boundary p p p

# Define a cubic lattice and create the simulation box
lattice sc 10.0
region box block 0 10 0 10 0 10
create_box 1 box

# Create water molecules using the SPC/E model
# (Assume the water molecule structure is predefined in a data file)
read_data water_spce.data

# Pair potential: Lennard-Jones with long-range Coulombic interactions
pair_style lj/cut/coul/long 10.0
pair_coeff 1 1 0.15535 3.166 # O-O interactions
pair_coeff 2 2 0.0 0.0       # H-H interactions
pair_coeff 1 2 0.0 0.0       # O-H interactions

# Bond and angle potentials
bond_style harmonic
bond_coeff 1 450 1.0         # OH bond

angle_style harmonic
angle_coeff 1 55 104.52      # HOH angle

# Kspace for long-range interactions
kspace_style ewald 1.0e-4

# Constraints for SPC/E water
fix shake_water all shake 0.0001 20 0 b 1 a 1

# Equilibration with NVT ensemble
timestep 1.0
thermo 100
thermo_style custom step temp press pe ke etotal density
velocity all create 338.0 12345
fix nvt all nvt temp 338.0 338.0 100.0

# GCMC settings
fix gcmc all gcmc 10 100 100 0 12345 338.0 -0.5 3.0 mol water type 1 2

# Output settings
dump id all atom 1000 dump.water
dump_modify id scale yes

# Run simulation
run 20000

# Print GCMC acceptance rates
variable insert_rate equal f_gcmc[1]
variable delete_rate equal f_gcmc[2]
variable exchange_rate equal f_gcmc[3]

print "Insertion acceptance rate: ${insert_rate}"
print "Deletion acceptance rate: ${delete_rate}"
print "Exchange acceptance rate: ${exchange_rate}"
