# LAMMPS input script for a 3D Lennard-Jones melt simulation

# Initialize simulation
units lj
atom_style atomic

# Create a cubic simulation box
lattice fcc 0.8442
region box block 0 10 0 10 0 10
create_box 1 box
create_atoms 1 box

# Define interatomic potential
pair_style lj/cut 2.5
pair_coeff 1 1 1.0 1.0 2.5

# Set mass of atoms
mass 1 1.0

# Set initial velocities
velocity all create 3.0 12345

# Define neighbor settings
neighbor 0.3 bin
neigh_modify every 5 delay 10 check yes

# Integrate using microcanonical ensemble
fix 1 all nve

# Setup Interactive Molecular Dynamics (IMD)
fix 2 all imd 3001 force 0.1 rate 1.0

# Output settings
thermo 500
thermo_style custom step temp epair etotal ke cpu

# Run the simulation
run 5000000
