# 2D Lennard-Jones Liquid Simulation for Viscosity Calculation using Green-Kubo Method

units lj
dimension 2
atom_style atomic

# Create simulation box and atoms
lattice sq 0.6
region box block 0 20 0 20 -0.5 0.5
create_box 1 box
create_atoms 1 box

# Define interatomic potential
pair_style lj/cut 2.5
pair_coeff 1 1 1.0 1.0 2.5

# Set neighbor list parameters
neighbor 0.3 bin
neigh_modify every 1 delay 0 check yes

# Setup initial conditions
velocity all create 1.0 87287 loop geom

# Apply 2D constraint
fix 1 all enforce2d

# Equilibrate system using NVE and Langevin thermostat
fix 2 all nve
fix 3 all langevin 1.0 1.0 1.0 904297

# Run equilibration
timestep 0.005
run 10000

# Reset timestep for viscosity calculation
reset_timestep 0

# Define stress/atom compute for viscosity
compute stress all stress/atom NULL
compute myKE all ke/atom
compute myPE all pe/atom
compute myStress all reduce sum c_stress[1] c_stress[2] c_stress[4]

# Viscosity calculation using Green-Kubo method
fix 4 all ave/correlate 5 20 400 &
    c_myStress[1] c_myStress[2] c_myStress[3] &
    type auto file viscosity.dat ave running

variable scale equal ${dt}/${temp}
variable v11 equal trap(f_4[3])*${scale}/(2*vol)
variable v22 equal trap(f_4[4])*${scale}/(2*vol)
variable v12 equal trap(f_4[5])*${scale}/(2*vol)

thermo_style custom step temp press v_v11 v_v22 v_v12
thermo 100

# Run simulation for viscosity calculation
run 20000
