# LAMMPS input script for surface deposition simulation

units lj
atom_style atomic

# Initialize simulation box and lattice
boundary p p f
lattice fcc 0.8442
region box block 0 10 0 10 0 20
create_box 2 box

# Define substrate region
region substrate block 0 10 0 10 0 3
create_atoms 1 region substrate

# Define pair potential
pair_style lj/cut 2.5
pair_coeff 1 1 1.0 1.0 2.5
pair_coeff 1 2 1.0 1.0 2.5
pair_coeff 2 2 1.0 1.0 2.5

# Define groups
group substrate type 1

# Apply fix for substrate
fix 1 substrate setforce 0.0 0.0 0.0

# Deposit atoms
region top_slab block 0 10 0 10 19.5 20
fix 2 all deposit 100 2 1000 12345 region top_slab vz -0.1 -0.1

# Apply NVE integration and Langevin thermostat to all atoms
fix 3 all nve
fix 4 all langevin 1.0 1.0 0.1 12345

# Reflective wall at the top boundary
fix 5 all wall/reflect zhi EDGE

# Set timestep and run
timestep 0.005
thermo 100
thermo_style custom step temp pe ke etotal press
run 10000
