# LAMMPS input script for a polymer chain using the FENE beadspring model

units lj
atom_style bond

# Read initial configuration from data file
read_data data.chain

# Define neighbor list
neighbor 0.3 bin
neigh_modify every 1 delay 0 check yes

# Define bond style and coefficients for FENE
bond_style fene
bond_coeff 1 30.0 1.5 1.0 1.0

# Define pair style and coefficients for Lennard-Jones potential
pair_style lj/cut 1.12
pair_modify shift yes
pair_coeff 1 1 1.0 1.0 1.12

# Special bonds for FENE model
special_bonds fene

# Set up the simulation
timestep 0.012
thermo 100

# Apply fixes
fix 1 all nve
fix 2 all langevin 1.0 1.0 1.0 904297

# Run the simulation
run 500
