# LAMMPS input script for a simple cubic lattice with Lennard-Jones potential

# Initialize simulation
units           metal
dimension       3
boundary        p f p
atom_style      atomic

# Create geometry
lattice         sc 10.0
region          box block 0 10 0 10 0 10
create_box      1 box
create_atoms    1 box

# Define mass and LJ potential
mass            1 39.95
pair_style      lj/cut 8.5
pair_coeff      1 1 0.01 3.4 8.5

# Define initial velocities
velocity        all create 300.0 12345

# Define reflective boundaries in y-direction
fix             reflect_y all wall/reflect ylo EDGE yhi EDGE

# Set up simulation parameters
timestep        0.001
thermo          1000

# Run simulation
fix             1 all nve
run             10000
