# LAMMPS input script for simulating a graphene-ionic liquid supercapacitor

# Initialization
units real
atom_style full
boundary p p f

# Create simulation box and read data
read_data graphene_ionic_liquid.data

# Pair style and coefficients
pair_style lj/cut/coul/long 12.0
pair_coeff * * lj/cut/coul/long 0.1 3.4 12.0

# Kspace style for long-range electrostatics with slab correction
kspace_style pppm 1e-4
kspace_modify slab 3.0

# Define groups
group bottom_electrode type 1
group top_electrode type 2
group ionic_liquid subtract all bottom_electrode top_electrode

# Set up the thermopotentiostat fix for electrodes
fix 1 bottom_electrode electrode/thermo -1.0 temp 500.0 100.0 7
fix 2 top_electrode electrode/thermo 1.979 temp 500.0 100.0 7

# Integrate the ionic liquid
fix 3 ionic_liquid nve

# Initial velocity setup
velocity all create 500.0 7 dist gaussian

# Run the simulation for equilibration
timestep 1.0
thermo_style custom step temp pe etotal f_1 f_2
thermo 50

# Equilibrate the system
run 10000

# End of script

Make sure to replace `graphene_ionic_liquid.data` with your actual data file containing the system setup. Adjust pair coefficients based on your specific ionic liquid and electrode interactions. Ensure that `fix electrode/thermo` is correctly implemented in your LAMMPS installation, as it might require custom code or additional plugins.