# LAMMPS Input Script for 2D SPH Fluid Simulation with Shear Forces

units        si
dimension    2
atom_style   sphere

# Create a 2D box with dimensions (0, 0) to (0.1, 0.1) meters
region       simbox block 0 0.1 0 0.1 -0.01 0.01
create_box   3 simbox

# Create fluid particles
region       fluid block 0.02 0.08 0.02 0.08
create_atoms 1 region fluid
set          type 1 diameter 0.005 density 1000.0

# Create stationary wall particles
region       wall1 block INF INF 0 0.01
region       wall2 block INF INF 0.09 INF
create_atoms 2 region wall1
create_atoms 2 region wall2
set          type 2 diameter 0.005 density 1000.0

# Create driver particles
region       driver block INF INF 0.09 INF
create_atoms 3 region driver
set          type 3 diameter 0.005 density 1000.0
velocity     all create 0.0 12345
velocity     type 3 set 0.0 -0.01 0.0

# Define SPH properties
pair_style   sph/taitwater/morris 0.005
pair_coeff   * * 1000.0 0.1 0.001

# Group definitions
group        fluid type 1
group        walls type 2
group        driver type 3

# Fixes for SPH dynamics
fix          1 all nve/sphere
fix          2 all enforce2d
fix          3 driver setforce 0.0 0.0 0.0

# Output settings
thermo       100
thermo_style custom step time ke pe etotal

# Run the simulation
timestep     5.0e-5
run          4000
