# LAMMPS input script for a charged particle system with no direct pairwise interactions

units lj
atom_style charge

# Read initial configuration from data file
read_data data.cloud_wall

# Initialize velocities to zero
velocity all create 0.0 12345 mom no rot no dist uniform

# Define pair style and kspace style for long-range interactions
pair_style zero 10.0
pair_coeff * *

kspace_style scafacos p3m 0.001

# Neighbor list settings
neighbor 0.3 bin
neigh_modify delay 0 every 1 check yes

# Define the integration style
fix 1 all nve

# Output settings
timestep 0.005
thermo 10
thermo_style custom step temp pe ke etotal press

# Run the simulation
run 100

# Optional dump commands for trajectory output, currently commented out
# dump 1 all atom 10 dump.atom
# dump 2 all custom 10 dump.custom id type x y z vx vy vz
# dump 3 all xyz 10 dump.xyz
