# LAMMPS Input Script for Gold (Au) Crystal with SMATB Potential

# Initialize simulation
units           metal
dimension       3
boundary        p p p
atom_style      atomic

# Create FCC lattice and simulation box
lattice         fcc 4.0782
region          box block 0 1 0 1 0 1
create_box      1 box
create_atoms    1 box

# Define interatomic potential
pair_style      smatb/single
pair_coeff      * * Au  # Assuming a single element potential, specify correctly

# Set neighbor list
neighbor        2.0 bin
neigh_modify    every 1 delay 0 check yes

# Set up relaxation and minimization
fix             1 all box/relax iso 1.0
min_style       cg
minimize        1.0e-8 1.0e-8 1000 10000

# Output settings
thermo          100
thermo_style    custom step pe lx ly lz press

# Run the relaxation and minimization
run             0
write_restart   gold_relaxed.restart
