# LAMMPS Input Script for FE Simulation with AtC Package

units metal
atom_style atomic

# Create the lattice and geometry
lattice fcc 3.615
region box block 0 100 0 10 0 10
create_box 1 box
create_atoms 1 box

# Specify the mass of argon
mass 1 39.948

# Define boundary conditions
boundary f p p

# Set up the AtC package
fix atc all atc full

# Define the material parameters
fix_modify atc file Ar_CauchyBorn.mat

# Create AtC mesh and quadrature
fix_modify atc mesh create 10 1 1
fix_modify atc mesh quadrature 2 Gauss

# Periodic boundary conditions in the AtC mesh
fix_modify atc mesh periodic y
fix_modify atc mesh periodic z

# Initial conditions for displacements and velocities
fix_modify atc initial displacement 0.0 0.0 0.0
fix_modify atc initial velocity 0.0 0.0 0.0

# Define node sets for boundary conditions
variable fixed_nodes index 1
variable increment_nodes index 2

fix_modify atc mesh nodeset create box 0 0 0 10 10 10 id ${fixed_nodes}
fix_modify atc mesh nodeset create box 90 90 0 10 0 10 id ${increment_nodes}

# Apply boundary conditions
fix_modify atc mesh bc displacement x ${fixed_nodes} 0.0
fix_modify atc mesh bc displacement x ${increment_nodes} ramp 0.0 0.1

# Run the simulation
timestep 20
thermo 100
run 3000
