Here is a complete and valid LAMMPS input script based on your requirements.

```lammps
# Molecular dynamics simulation with ReaxFF

# Define the simulation parameters
dimension   3
boundary    p p p
units       real
atom_style  charge
timestep    0.1

# Create the simulation region and atoms
region        sim_region block 0 70.0 0 70.0 0 70.0 units box
create_box    4 sim_region
create_atoms  3 random 1372 1234 NULL overlap 5.0 maxtry 100

# Define the atom masses
mass    1 28.0855  # Si
mass    2 15.9994  # O
mass    3 12.0107  # C
mass    4 18.9984  # F

# Set atomic charges
set type 3 charge 0

# Define the pair style and coefficients
pair_style     reaxff NULL
pair_coeff     * * ../../sticking.coefficients/sticking/ffield.reax.combined.COFSi.v4 Si O C F
neighbor       2. bin
neigh_modify   every 10 delay 0 check no

# Apply charge equilibration
fix            2 all qeq/reaxff 1 0.0 10.0 1e-6 reaxff

# Define thermodynamic output
thermo_style   custom step temp epair etotal press density
thermo         100

# Dump output data
dump           1 all custom 100 dumpidtype.dat id type q x y z

# Apply temperature and pressure control
fix            1 all nvt temp 6000.0 2500.0 $(100.0*dt)

# Run the simulation
run            25000000
```

Note: Please ensure to replace the path `../../sticking.coefficients/sticking/ffield.reax.combined.COFSi.v4` with the correct path to your ReaxFF field file. Also, this script assumes that you have a box of 70.0 units in all directions with a random distribution of Carbon atoms. You may want to adjust these parameters according to your specific needs.