# LAMMPS input script for nanoparticle system
# Manual approach - carefully tuned parameters

# Initialization
units real
atom_style full
dimension 3
boundary p p p

# System setup
read_data nanoparticle.data

# Force field
pair_style hybrid/overlay lj/charmm/coul/long 12.0 lj/cut/coul/cut 14.0
pair_coeff * * lj/charmm/coul/long
pair_coeff 1 1 lj/cut/coul/cut 0.13 2.52
pair_coeff 2 2 lj/cut/coul/cut 0.19 2.94
pair_coeff 3 3 lj/cut/coul/cut 0.12 2.41

# Bonded interactions
bond_style harmonic
angle_style harmonic
dihedral_style charmm
improper_style harmonic

# Settings
neighbor 2.0 bin
neigh_modify every 1 delay 10 check yes
kspace_style pppm 1.0e-4

# Minimization
min_style cg
minimize 1.0e-4 1.0e-6 1000 5000

# Equilibration
velocity all create 300.0 12345 rot yes dist gaussian
fix 1 all nvt temp 300.0 300.0 100.0
timestep 1.0
thermo 100
run 10000

# Production
unfix 1
fix 1 all npt temp 300.0 300.0 100.0 iso 1.0 1.0 1000.0
dump 1 all custom 1000 traj.lammpstrj id type x y z vx vy vz
run 100000
